100
128
19
10
16
27
14
1
25
10
5
2
6
45
49
6
17
5
17
29
10
13
18
4
26
5
24
14
30
3
36
14
6
28
5
5
5
2
36
23
7
59
51
18
6
44
55
36
48
50
52
56
51
21
59
21
32
10
6
40
7
28
64
64
5
43
44
47
42
16
64
57
39
57
43
41
28
34
7
39
53
2
63
52
53
34
64
61
3
42
44
59
52
11
41
1
42
50
12
17
53
24